7 965
525 7 479 7 358 7 198 9 24 11 849 15 693 20 574 27
525 7 482 7 394 7 212 9 29 11 822 15 623 21
525 7 505 7 381 7 218 9 50 11 850 15 664 21
525 7 482 7 365 7 115 9 943 13
525 7 482 7 365 7 115 9 943 13
525 7 482 7 367 7 213 9 32 11 824 18
525 7 482 7 367 7 213 9 32 11 824 18
